<instance format="XCSP3" type="CSP">
  <variables>
    <var id="x0"> 1 7 10 13 </var>
    <var id="x1"> 1 4 9 10 13 </var>
    <var id="x2"> 0 1 10 </var>
    <var id="x3"> 0 1 4 </var>
    <var id="x4"> 0 4 9 10 </var>
    <var id="x5"> 1 7 9 10 </var>
    <var id="x6"> 1 4 7 9 </var>
    <var id="x7"> 1 7 10 13 </var>
    <var id="x8"> 1 4 5 7 13 </var>
    <var id="x9"> 1 5 10 </var>
    <var id="x10"> 4 7 13 </var>
    <var id="x11"> 4..6 10 </var>
    <var id="x12"> 1 7 10 </var>
    <var id="x13"> 1 4 </var>
    <var id="x14"> 1 6..8 </var>
    <var id="x15"> 1 7 </var>
    <var id="x16"> 0 1 8 </var>
    <var id="x17"> 0 11 14 </var>
    <var id="x18"> 0 7 8 11 14 </var>
    <var id="x19"> 0 1 11 14 </var>
    <var id="x20"> 1 6 7 11 </var>
    <var id="x21"> 1 3 7 11 </var>
    <var id="x22"> 1 9 12 </var>
    <var id="x23"> 1 3 12 </var>
    <var id="x24"> 1 3 5 9 12 </var>
    <var id="x25"> 5 9 11 </var>
    <var id="x26"> 5 11 </var>
    <var id="x27"> 1 3 7 9 12 </var>
    <var id="x28"> 0 3 4 6 7 10 </var>
    <var id="x29"> 1 6 7 10 </var>
    <var id="x30"> 1 3 7 10 </var>
    <var id="x31"> 1 4 10 </var>
    <var id="x32"> 1 3 4 7 </var>
    <var id="x33"> 0 4 10 14 </var>
    <var id="x34"> 0 4 7 14 </var>
    <var id="x35"> 4 7 14 </var>
    <var id="x36"> 2..4 13 </var>
    <var id="x37"> 3 9 10 </var>
    <var id="x38"> 4 9 10 </var>
    <var id="x39"> 4 8 10 </var>
    <var id="x40"> 3 8..10 </var>
    <var id="x41"> 2 4 8 9 </var>
    <var id="x42"> 3 4 9 </var>
    <var id="x43"> 0 4 </var>
    <var id="x44"> 1 5 9 14 </var>
    <var id="x45"> 0 4 13 14 </var>
    <var id="x46"> 4 5 14 </var>
    <var id="x47"> 1 9 </var>
    <var id="x48"> 0 1 4 9 14 </var>
    <var id="x49"> 4 5 9 14 </var>
    <var id="x50"> 1 8..10 </var>
    <var id="x51"> 1 10 </var>
    <var id="x52"> 0 1 8 10 12 </var>
    <var id="x53"> 4 8 10 </var>
    <var id="x54"> 1 8..10 12 </var>
    <var id="x55"> 4 8 9 </var>
    <var id="x56"> 1 4 9 </var>
    <var id="x57"> 3 7 10 </var>
    <var id="x58"> 1 5 7 9 10 </var>
    <var id="x59"> 1 3 5 7 </var>
    <var id="x60"> 1 5 </var>
    <var id="x61"> 1 3 5 9 10 </var>
    <var id="x62"> 5 9..11 </var>
    <var id="x63"> 7 11 </var>
    <var id="x64"> 4 7 8 </var>
    <var id="x65"> 5 7 8 </var>
    <var id="x66"> 2 4 </var>
    <var id="x67"> 2 8 </var>
    <var id="x68"> 4 7 8 11 14 </var>
    <var id="x69"> 4 5 8 11 14 </var>
    <var id="x70"> 4 7 11 </var>
    <var id="x71"> 1 2 4 10 </var>
    <var id="x72"> 1..3 10 </var>
    <var id="x73"> 1 4 5 </var>
    <var id="x74"> 1 3 5 10 14 </var>
    <var id="x75"> 4 5 10 14 </var>
    <var id="x76"> 1 3 10 </var>
    <var id="x77"> 1 3 4 </var>
    <var id="x78"> 1 9 10 </var>
    <var id="x79"> 1 3 5 </var>
    <var id="x80"> 1 5 8 </var>
    <var id="x81"> 8 14 </var>
    <var id="x82"> 1 9 14 </var>
    <var id="x83"> 5 8 9 14 </var>
    <var id="x84"> 1 3 9 </var>
    <var id="x85"> 3 6 8 </var>
    <var id="x86"> 6 8 9 </var>
    <var id="x87"> 2 9 12 </var>
    <var id="x88"> 2 3 </var>
    <var id="x89"> 6 8 12 </var>
    <var id="x90"> 3 9 12 </var>
    <var id="x91"> 2 9 11 </var>
    <var id="x92"> 4 7 8 </var>
    <var id="x93"> 7 8 13 </var>
    <var id="x94"> 2 7 11 13 </var>
    <var id="x95"> 4 8 12 </var>
    <var id="x96"> 4 8 11 </var>
    <var id="x97"> 2 4 11 </var>
    <var id="x98"> 2 4 7 8 </var>
    <var id="x99"> 0 4 6 8 10 </var>
    <var id="x100"> 6 8 10 </var>
    <var id="x101"> 2 10 </var>
    <var id="x102"> 0 2 8 10 12 </var>
    <var id="x103"> 0 4 6 8 12 </var>
    <var id="x104"> 0 2 4 </var>
    <var id="x105"> 2 4 8 </var>
  </variables>
  <constraints>
    <group>
      <allDifferent> %... </allDifferent>
      <args> x0 x1 x2 x3 x4 x5 x6 </args>
      <args> x7 x8 x9 x10 x11 x12 x13 </args>
      <args> x14 x15 x16 x17 x18 x19 x20 </args>
      <args> x21 x22 x23 x24 x25 x26 x27 </args>
      <args> x28 x29 x30 x31 x32 x33 x34 x35 </args>
      <args> x36 x37 x38 x39 x40 x41 x42 </args>
      <args> x43 x44 x45 x46 x47 x48 x49 </args>
      <args> x50 x51 x52 x53 x54 x55 x56 </args>
      <args> x57 x58 x59 x60 x61 x62 x63 </args>
      <args> x64 x65 x66 x67 x68 x69 x70 </args>
      <args> x71 x72 x73 x74 x75 x76 x77 </args>
      <args> x78 x79 x80 x81 x82 x83 x84 </args>
      <args> x85 x86 x87 x88 x89 x90 x91 </args>
      <args> x92 x93 x94 x95 x96 x97 x98 </args>
      <args> x99 x100 x101 x102 x103 x104 x105 </args>
      <args> x28 x43 x57 x64 x85 x92 x99 </args>
      <args> x14 x29 x50 x58 x65 x86 x93 x100 </args>
      <args> x0 x7 x21 x30 x51 x94 x101 </args>
      <args> x1 x22 x31 x66 x71 x78 x87 </args>
      <args> x8 x15 x32 x36 x59 x79 x88 </args>
      <args> x2 x16 x23 x52 x67 x72 x102 </args>
      <args> x3 x60 x73 x80 x89 x95 x103 </args>
      <args> x9 x24 x37 x44 x61 x74 x90 </args>
      <args> x4 x17 x25 x33 x38 x62 x75 </args>
      <args> x10 x18 x34 x45 x63 x68 x81 </args>
      <args> x11 x26 x39 x46 x53 x69 x96 </args>
      <args> x5 x12 x27 x40 x47 x54 x76 </args>
      <args> x13 x19 x48 x82 x91 x97 x104 </args>
      <args> x35 x41 x49 x55 x83 x98 x105 </args>
      <args> x6 x20 x42 x56 x70 x77 x84 </args>
    </group>
  </constraints>
</instance>

